Geographic Exponential Decay
40 206 229 137 309 236 105 220 138 233 24 260 251 6 111 291 213 19 37 147 51 76 129 88 211 180 79 210 54 151 52 59 209 192 274 305 11 167 198 85 103
p edge 320 328
e 0 313 2.0
e 1 177 1.0
e 1 0 1.0
e 2 68 2.0
e 2 1 2.0
e 3 156 1.0
e 3 2 1.0
e 4 229 45.0
e 4 3 1.0
e 5 189 25.0
e 5 59 89.0
e 5 261 39.0
e 6 88 94.0
e 6 294 46.0
e 6 208 63.0
e 6 171 29.0
e 6 213 95.0
e 7 134 3.0
e 7 4 1.0
e 8 207 1.0
e 8 7 3.0
e 9 59 81.0
e 10 284 12.0
e 10 113 33.0
e 10 263 25.0
e 10 8 46.0
e 11 100 7.0
e 11 203 95.0
e 11 95 17.0
e 11 12 61.0
e 11 62 25.0
e 11 10 64.0
e 13 97 1.0
e 13 11 17.0
e 14 108 3.0
e 14 13 2.0
e 15 139 2.0
e 15 14 1.0
e 16 130 6.0
e 16 15 1.0
e 17 296 7.0
e 17 16 8.0
e 18 138 82.0
e 19 162 73.0
e 19 282 63.0
e 19 143 54.0
e 19 292 65.0
e 19 254 59.0
e 19 17 33.0
e 20 172 3.0
e 20 19 2.0
e 21 314 1.0
e 21 20 3.0
e 22 69 7.0
e 22 21 2.0
e 23 262 1.0
e 23 22 1.0
e 24 25 79.0
e 24 84 94.0
e 24 215 18.0
e 24 273 66.0
e 24 216 27.0
e 24 23 35.0
e 26 265 1.0
e 26 24 64.0
e 27 76 97.0
e 27 26 1.0
e 28 65 5.0
e 28 27 1.0
e 29 210 31.0
e 30 287 22.0
e 30 129 81.0
e 31 175 1.0
e 31 28 1.0
e 32 185 2.0
e 32 31 3.0
e 33 46 1.0
e 33 32 1.0
e 34 295 3.0
e 34 33 5.0
e 35 232 1.0
e 35 34 9.0
e 36 304 1.0
e 36 35 1.0
e 37 187 79.0
e 37 99 61.0
e 37 176 98.0
e 37 229 41.0
e 37 305 79.0
e 38 289 2.0
e 38 36 1.0
e 39 160 3.0
e 39 38 4.0
e 40 41 1.0
e 40 39 2.0
e 42 315 1.0
e 42 40 1.0
e 43 297 1.0
e 43 42 4.0
e 44 135 2.0
e 44 43 5.0
e 45 47 4.0
e 45 44 1.0
e 48 191 1.0
e 48 45 3.0
e 49 128 5.0
e 49 48 1.0
e 50 145 1.0
e 50 49 5.0
e 51 52 89.0
e 51 300 51.0
e 51 252 6.0
e 51 198 11.0
e 51 259 33.0
e 52 229 65.0
e 52 127 91.0
e 52 53 97.0
e 52 54 92.0
e 54 298 26.0
e 54 55 37.0
e 54 226 75.0
e 54 148 15.0
e 56 242 4.0
e 56 50 1.0
e 57 58 4.0
e 57 56 8.0
e 59 221 50.0
e 59 298 100.0
e 59 178 38.0
e 60 274 30.0
e 61 227 1.0
e 61 57 6.0
e 63 312 10.0
e 63 61 8.0
e 64 196 1.0
e 64 63 12.0
e 66 144 11.0
e 66 64 1.0
e 67 70 1.0
e 67 66 11.0
e 71 179 1.0
e 71 67 1.0
e 72 82 24.0
e 72 115 24.0
e 72 71 12.0
e 73 157 2.0
e 73 72 17.0
e 74 253 3.0
e 74 73 4.0
e 75 90 2.0
e 75 74 3.0
e 76 77 68.0
e 76 78 44.0
e 76 268 90.0
e 76 79 77.0
e 79 136 54.0
e 79 96 34.0
e 79 80 18.0
e 79 81 95.0
e 83 271 13.0
e 83 180 84.0
e 85 206 76.0
e 85 264 81.0
e 85 260 53.0
e 85 86 79.0
e 85 237 60.0
e 87 133 9.0
e 87 75 1.0
e 88 116 39.0
e 88 89 43.0
e 88 180 11.0
e 88 181 98.0
e 91 137 69.0
e 92 272 38.0
e 92 93 49.0
e 92 244 13.0
e 92 87 12.0
e 94 190 2.0
e 94 92 45.0
e 98 101 6.0
e 98 94 8.0
e 102 103 34.0
e 103 274 69.0
e 103 223 94.0
e 103 152 23.0
e 103 150 42.0
e 104 316 1.0
e 104 98 5.0
e 105 106 4.0
e 105 107 47.0
e 105 131 97.0
e 105 168 77.0
e 105 109 86.0
e 105 104 19.0
e 109 110 42.0
e 109 212 27.0
e 111 266 34.0
e 111 112 8.0
e 111 209 68.0
e 111 114 85.0
e 111 117 50.0
e 117 305 86.0
e 118 260 64.0
e 119 120 7.0
e 119 105 51.0
e 121 186 1.0
e 121 119 5.0
e 122 147 22.0
e 123 195 2.0
e 123 121 2.0
e 124 293 3.0
e 124 123 12.0
e 125 180 7.0
e 125 281 1.0
e 126 129 36.0
e 129 209 21.0
e 129 137 61.0
e 129 245 94.0
e 132 317 4.0
e 132 124 9.0
e 137 138 55.0
e 137 140 38.0
e 137 285 9.0
e 138 318 25.0
e 138 141 85.0
e 138 274 19.0
e 142 146 3.0
e 142 132 5.0
e 147 298 15.0
e 147 305 98.0
e 147 155 53.0
e 147 148 90.0
e 149 151 94.0
e 149 142 1.0
e 151 153 18.0
e 151 154 36.0
e 151 158 61.0
e 151 159 27.0
e 161 319 4.0
e 161 149 2.0
e 163 164 1.0
e 163 161 5.0
e 165 166 11.0
e 165 163 5.0
e 167 169 34.0
e 167 170 95.0
e 167 173 99.0
e 167 174 69.0
e 167 180 51.0
e 170 197 38.0
e 170 180 30.0
e 182 183 3.0
e 182 165 1.0
e 184 188 1.0
e 184 182 1.0
e 192 230 36.0
e 192 286 5.0
e 192 193 38.0
e 192 233 49.0
e 192 194 59.0
e 197 290 15.0
e 198 299 92.0
e 198 199 47.0
e 198 200 37.0
e 198 201 35.0
e 202 204 1.0
e 202 184 1.0
e 205 206 48.0
e 206 209 68.0
e 206 210 67.0
e 206 211 47.0
e 209 210 82.0
e 209 211 71.0
e 210 211 87.0
e 210 213 17.0
e 211 213 86.0
e 211 274 60.0
e 213 214 45.0
e 213 310 79.0
e 217 218 1.0
e 217 202 2.0
e 219 220 67.0
e 219 217 2.0
e 220 222 97.0
e 220 224 21.0
e 220 225 75.0
e 220 228 91.0
e 229 231 80.0
e 229 233 74.0
e 233 234 18.0
e 233 235 41.0
e 233 236 20.0
e 236 238 48.0
e 236 239 96.0
e 236 240 84.0
e 236 241 17.0
e 243 246 1.0
e 243 219 1.0
e 247 248 1.0
e 247 243 5.0
e 249 250 9.0
e 249 308 25.0
e 249 247 24.0
e 250 251 57.0
e 251 255 8.0
e 251 256 23.0
e 251 257 53.0
e 251 258 76.0
e 260 264 41.0
e 260 267 68.0
e 260 269 14.0
e 270 274 83.0
e 275 276 2.0
e 275 249 19.0
e 277 278 2.0
e 277 275 2.0
e 279 280 20.0
e 279 277 2.0
e 280 283 10.0
e 288 291 43.0
e 291 300 47.0
e 291 301 39.0
e 291 302 88.0
e 291 303 92.0
e 305 306 96.0
e 305 307 100.0
e 309 311 65.0
e 309 279 95.0
